40
     7    77    25    68    63    75    21    41    93    45    59    18    26     5    20    81    23    22    66    13    70    20    35     1    82    74    44    33     4    12    88     2     6    16    41     5    89    22    53    40
     2    10     8     1     4     1    10     4     1     1     3     4     8     6     7     6     8     8     7     6     4     4    10    10     6     7     5     6     2     6     8     2     9     7     6     7     3     1    10     2
  1137  1078   737   846   972   844   691  1087   852   955   895  1209   955   994   746  1032   873  1092  1208  1034   824  1117  1104   743   643   811   708  1259   985   880  1203  1109  1052  1234   666   667  1068   803  1135  1180
